p cnf 70 534
c max 20 21 22 23 24 25 26 27 28 29 30 31 32 33 34 35 36 37 53 54 55 56 57 58 59 60 61 62 63 64 65 66 67 68 69 70 0
c ind 1 2 3 4 5 6 7 8 9 10 11 12 13 14 15 16 17 18 19 38 39 40 41 42 43 44 45 46 47 48 49 50 51 52 0
c p weight 8 -1 0
c p weight 9 -1 0
c p weight 10 -1 0
c p weight -8 1 0
c p weight -9 1 0
c p weight -10 1 0
c p weight 11 0.70710678118654752440084436210485 0
c p weight 12 0.70710678118654752440084436210485 0
c p weight 13 0.70710678118654752440084436210485 0
c p weight -11 1 0
c p weight -12 1 0
c p weight -13 1 0
c p complex 14 0.70710678118654752440084436210485 0.70710678118654752440084436210485 0
c p complex 15 0.70710678118654752440084436210485 0.70710678118654752440084436210485 0
c p complex 16 0.70710678118654752440084436210485 0.70710678118654752440084436210485 0
c p complex -14 1 0 0
c p complex -15 1 0 0
c p complex -16 1 0 0
c p complex 17 0.70710678118654752440084436210485 -0.70710678118654752440084436210485 0
c p complex 18 0.70710678118654752440084436210485 -0.70710678118654752440084436210485 0
c p complex 19 0.70710678118654752440084436210485 -0.70710678118654752440084436210485 0
c p complex -17 1 0 0
c p complex -18 1 0 0
c p complex -19 1 0 0
c p weight 41 -1 0
c p weight 42 -1 0
c p weight 43 -1 0
c p weight -41 1 0
c p weight -42 1 0
c p weight -43 1 0
c p weight 44 0.70710678118654752440084436210485 0
c p weight 45 0.70710678118654752440084436210485 0
c p weight 46 0.70710678118654752440084436210485 0
c p weight -44 1 0
c p weight -45 1 0
c p weight -46 1 0
c p complex 47 0.70710678118654752440084436210485 0.70710678118654752440084436210485 0
c p complex 48 0.70710678118654752440084436210485 0.70710678118654752440084436210485 0
c p complex 49 0.70710678118654752440084436210485 0.70710678118654752440084436210485 0
c p complex -47 1 0 0
c p complex -48 1 0 0
c p complex -49 1 0 0
c p complex 50 0.70710678118654752440084436210485 -0.70710678118654752440084436210485 0
c p complex 51 0.70710678118654752440084436210485 -0.70710678118654752440084436210485 0
c p complex 52 0.70710678118654752440084436210485 -0.70710678118654752440084436210485 0
c p complex -50 1 0 0
c p complex -51 1 0 0
c p complex -52 1 0 0
4 2 -3 0
4 1 -3 0
-4 2 3 0
-4 1 3 0
4 -2 -1 3 0
-4 -2 -1 -3 0
5 -20 -1 0
-5 -20 1 0
-8 -20 0
-11 -20 0
-17 -20 0
-14 -20 0
-8 5 -23 0
-8 -23 1 0
8 -5 -23 -1 0
11 -23 0
-17 -23 0
-14 -23 0
5 -29 -1 0
5 -26 -1 0
-5 -29 1 0
-5 -26 1 0
-8 -29 0
-8 -26 0
-11 -29 0
-11 -26 0
-17 -26 0
-14 -29 0
17 -29 -1 0
14 -26 -1 0
-17 -29 1 0
-14 -26 1 0
5 -32 -1 0
-5 -32 1 0
6 -32 1 -2 0
6 -32 -1 2 0
-6 -32 1 2 0
-6 -32 -1 -2 0
-8 -32 0
-9 -32 0
-11 -32 0
-12 -32 0
-17 -32 0
-14 -32 0
-18 -32 0
-15 -32 0
5 -33 -1 0
-5 -33 1 0
7 -33 1 -4 0
7 -33 -1 4 0
-7 -33 1 4 0
-7 -33 -1 -4 0
-8 -33 0
-10 -33 0
-11 -33 0
-13 -33 0
-17 -33 0
-14 -33 0
-19 -33 0
-16 -33 0
20 23 26 29 32 33 34 36 0
-20 -23 0
-20 -26 0
-20 -29 0
-20 -32 0
-20 -33 0
-20 -34 0
-20 -36 0
-23 -26 0
-23 -29 0
-23 -32 0
-23 -33 0
-23 -34 0
-23 -36 0
-26 -29 0
-26 -32 0
-26 -33 0
-26 -34 0
-26 -36 0
-29 -32 0
-29 -33 0
-29 -34 0
-29 -36 0
-32 -33 0
-32 -34 0
-32 -36 0
-33 -34 0
-33 -36 0
-34 -36 0
6 -21 -2 0
-6 -21 2 0
-9 -21 0
-12 -21 0
-18 -21 0
-15 -21 0
-9 6 -24 0
-9 -24 2 0
9 -6 -24 -2 0
12 -24 0
-18 -24 0
-15 -24 0
6 -30 -2 0
6 -27 -2 0
-6 -30 2 0
-6 -27 2 0
-9 -30 0
-9 -27 0
-12 -30 0
-12 -27 0
-18 -27 0
-15 -30 0
18 -30 -2 0
15 -27 -2 0
-18 -30 2 0
-15 -27 2 0
6 -34 -2 0
-6 -34 2 0
5 -34 2 -1 0
5 -34 -2 1 0
-5 -34 2 1 0
-5 -34 -2 -1 0
-9 -34 0
-8 -34 0
-12 -34 0
-11 -34 0
-18 -34 0
-15 -34 0
-17 -34 0
-14 -34 0
6 -35 -2 0
-6 -35 2 0
7 -35 2 -4 0
7 -35 -2 4 0
-7 -35 2 4 0
-7 -35 -2 -4 0
-9 -35 0
-10 -35 0
-12 -35 0
-13 -35 0
-18 -35 0
-15 -35 0
-19 -35 0
-16 -35 0
21 24 27 30 34 35 32 37 0
-21 -24 0
-21 -27 0
-21 -30 0
-21 -34 0
-21 -35 0
-21 -32 0
-21 -37 0
-24 -27 0
-24 -30 0
-24 -34 0
-24 -35 0
-24 -32 0
-24 -37 0
-27 -30 0
-27 -34 0
-27 -35 0
-27 -32 0
-27 -37 0
-30 -34 0
-30 -35 0
-30 -32 0
-30 -37 0
-34 -35 0
-34 -32 0
-34 -37 0
-35 -32 0
-35 -37 0
-32 -37 0
7 -22 -4 0
-7 -22 4 0
-10 -22 0
-13 -22 0
-19 -22 0
-16 -22 0
-10 7 -25 0
-10 -25 4 0
10 -7 -25 -4 0
13 -25 0
-19 -25 0
-16 -25 0
7 -31 -4 0
7 -28 -4 0
-7 -31 4 0
-7 -28 4 0
-10 -31 0
-10 -28 0
-13 -31 0
-13 -28 0
-19 -28 0
-16 -31 0
19 -31 -4 0
16 -28 -4 0
-19 -31 4 0
-16 -28 4 0
7 -36 -4 0
-7 -36 4 0
5 -36 4 -1 0
5 -36 -4 1 0
-5 -36 4 1 0
-5 -36 -4 -1 0
-10 -36 0
-8 -36 0
-13 -36 0
-11 -36 0
-19 -36 0
-16 -36 0
-17 -36 0
-14 -36 0
7 -37 -4 0
-7 -37 4 0
6 -37 4 -2 0
6 -37 -4 2 0
-6 -37 4 2 0
-6 -37 -4 -2 0
-10 -37 0
-9 -37 0
-13 -37 0
-12 -37 0
-19 -37 0
-16 -37 0
-18 -37 0
-15 -37 0
22 25 28 31 36 37 33 35 0
-22 -25 0
-22 -28 0
-22 -31 0
-22 -36 0
-22 -37 0
-22 -33 0
-22 -35 0
-25 -28 0
-25 -31 0
-25 -36 0
-25 -37 0
-25 -33 0
-25 -35 0
-28 -31 0
-28 -36 0
-28 -37 0
-28 -33 0
-28 -35 0
-31 -36 0
-31 -37 0
-31 -33 0
-31 -35 0
-36 -37 0
-36 -33 0
-36 -35 0
-37 -33 0
-37 -35 0
-33 -35 0
38 -53 -5 0
-38 -53 5 0
-41 -53 0
-44 -53 0
-50 -53 0
-47 -53 0
-41 38 -56 0
-41 -56 5 0
41 -38 -56 -5 0
44 -56 0
-50 -56 0
-47 -56 0
38 -62 -5 0
38 -59 -5 0
-38 -62 5 0
-38 -59 5 0
-41 -62 0
-41 -59 0
-44 -62 0
-44 -59 0
-50 -59 0
-47 -62 0
50 -62 -5 0
47 -59 -5 0
-50 -62 5 0
-47 -59 5 0
38 -65 -5 0
-38 -65 5 0
39 -65 5 -6 0
39 -65 -5 6 0
-39 -65 5 6 0
-39 -65 -5 -6 0
-41 -65 0
-42 -65 0
-44 -65 0
-45 -65 0
-50 -65 0
-47 -65 0
-51 -65 0
-48 -65 0
38 -66 -5 0
-38 -66 5 0
40 -66 5 -7 0
40 -66 -5 7 0
-40 -66 5 7 0
-40 -66 -5 -7 0
-41 -66 0
-43 -66 0
-44 -66 0
-46 -66 0
-50 -66 0
-47 -66 0
-52 -66 0
-49 -66 0
53 56 59 62 65 66 67 69 0
-53 -56 0
-53 -59 0
-53 -62 0
-53 -65 0
-53 -66 0
-53 -67 0
-53 -69 0
-56 -59 0
-56 -62 0
-56 -65 0
-56 -66 0
-56 -67 0
-56 -69 0
-59 -62 0
-59 -65 0
-59 -66 0
-59 -67 0
-59 -69 0
-62 -65 0
-62 -66 0
-62 -67 0
-62 -69 0
-65 -66 0
-65 -67 0
-65 -69 0
-66 -67 0
-66 -69 0
-67 -69 0
-56 -23 0
-59 -29 0
-62 -26 0
-20 53 65 66 67 69 0
-65 -32 0
-65 -20 -21 0
-66 -33 0
-66 -20 -22 0
39 -54 -6 0
-39 -54 6 0
-42 -54 0
-45 -54 0
-51 -54 0
-48 -54 0
-42 39 -57 0
-42 -57 6 0
42 -39 -57 -6 0
45 -57 0
-51 -57 0
-48 -57 0
39 -63 -6 0
39 -60 -6 0
-39 -63 6 0
-39 -60 6 0
-42 -63 0
-42 -60 0
-45 -63 0
-45 -60 0
-51 -60 0
-48 -63 0
51 -63 -6 0
48 -60 -6 0
-51 -63 6 0
-48 -60 6 0
39 -67 -6 0
-39 -67 6 0
38 -67 6 -5 0
38 -67 -6 5 0
-38 -67 6 5 0
-38 -67 -6 -5 0
-42 -67 0
-41 -67 0
-45 -67 0
-44 -67 0
-51 -67 0
-48 -67 0
-50 -67 0
-47 -67 0
39 -68 -6 0
-39 -68 6 0
40 -68 6 -7 0
40 -68 -6 7 0
-40 -68 6 7 0
-40 -68 -6 -7 0
-42 -68 0
-43 -68 0
-45 -68 0
-46 -68 0
-51 -68 0
-48 -68 0
-52 -68 0
-49 -68 0
54 57 60 63 67 68 65 70 0
-54 -57 0
-54 -60 0
-54 -63 0
-54 -67 0
-54 -68 0
-54 -65 0
-54 -70 0
-57 -60 0
-57 -63 0
-57 -67 0
-57 -68 0
-57 -65 0
-57 -70 0
-60 -63 0
-60 -67 0
-60 -68 0
-60 -65 0
-60 -70 0
-63 -67 0
-63 -68 0
-63 -65 0
-63 -70 0
-67 -68 0
-67 -65 0
-67 -70 0
-68 -65 0
-68 -70 0
-65 -70 0
-57 -24 0
-60 -30 0
-63 -27 0
-21 54 67 68 65 70 0
-67 -34 0
-67 -21 -20 0
-68 -35 0
-68 -21 -22 0
40 -55 -7 0
-40 -55 7 0
-43 -55 0
-46 -55 0
-52 -55 0
-49 -55 0
-43 40 -58 0
-43 -58 7 0
43 -40 -58 -7 0
46 -58 0
-52 -58 0
-49 -58 0
40 -64 -7 0
40 -61 -7 0
-40 -64 7 0
-40 -61 7 0
-43 -64 0
-43 -61 0
-46 -64 0
-46 -61 0
-52 -61 0
-49 -64 0
52 -64 -7 0
49 -61 -7 0
-52 -64 7 0
-49 -61 7 0
40 -69 -7 0
-40 -69 7 0
38 -69 7 -5 0
38 -69 -7 5 0
-38 -69 7 5 0
-38 -69 -7 -5 0
-43 -69 0
-41 -69 0
-46 -69 0
-44 -69 0
-52 -69 0
-49 -69 0
-50 -69 0
-47 -69 0
40 -70 -7 0
-40 -70 7 0
39 -70 7 -6 0
39 -70 -7 6 0
-39 -70 7 6 0
-39 -70 -7 -6 0
-43 -70 0
-42 -70 0
-46 -70 0
-45 -70 0
-52 -70 0
-49 -70 0
-51 -70 0
-48 -70 0
55 58 61 64 69 70 66 68 0
-55 -58 0
-55 -61 0
-55 -64 0
-55 -69 0
-55 -70 0
-55 -66 0
-55 -68 0
-58 -61 0
-58 -64 0
-58 -69 0
-58 -70 0
-58 -66 0
-58 -68 0
-61 -64 0
-61 -69 0
-61 -70 0
-61 -66 0
-61 -68 0
-64 -69 0
-64 -70 0
-64 -66 0
-64 -68 0
-69 -70 0
-69 -66 0
-69 -68 0
-70 -66 0
-70 -68 0
-66 -68 0
-58 -25 0
-61 -31 0
-64 -28 0
-22 55 69 70 66 68 0
-69 -36 0
-69 -22 -20 0
-70 -37 0
-70 -22 -21 0
38 -1 0
-38 1 0
39 -2 0
-39 2 0
40 -3 0
-40 3 0
